p tw 50 105
e 0 5
e 0 15
e 0 17
e 0 25
e 0 36
e 0 49
e 1 11
e 1 17
e 1 32
e 1 43
e 1 44
e 2 5
e 2 6
e 2 13
e 2 17
e 2 25
e 2 47
e 3 4
e 3 14
e 4 7
e 4 40
e 4 45
e 5 6
e 5 28
e 5 34
e 6 9
e 6 41
e 6 49
e 7 17
e 7 33
e 7 38
e 8 29
e 8 38
e 8 47
e 9 13
e 9 15
e 9 34
e 9 35
e 10 18
e 11 37
e 13 28
e 13 43
e 14 20
e 14 29
e 15 18
e 15 35
e 15 40
e 15 41
e 16 18
e 16 43
e 17 21
e 17 45
e 17 49
e 18 30
e 18 46
e 19 39
e 19 48
e 20 27
e 20 29
e 20 39
e 21 23
e 21 35
e 21 44
e 22 24
e 22 31
e 22 32
e 22 34
e 22 36
e 22 41
e 23 33
e 23 40
e 23 41
e 23 45
e 23 46
e 24 26
e 24 46
e 25 33
e 25 41
e 25 42
e 25 49
e 26 27
e 26 40
e 26 45
e 27 45
e 28 29
e 28 37
e 28 47
e 29 39
e 29 44
e 30 38
e 32 33
e 32 37
e 32 41
e 33 35
e 34 41
e 34 45
e 35 45
e 35 47
e 35 49
e 37 47
e 37 49
e 38 49
e 39 47
e 42 47
e 44 49
